CMD:
./solvers/bin/cadical --plain --no-reduce -t 1600 ./data/cnfs//cmugigamax/cmugigamax.60.cnf

c --- [ banner ] -------------------------------------------------------------
c 
c CaDiCaL SAT Solver
c Copyright (c) 2016-2024
c A. Biere, M. Fleury, N. Froleyks, K. Fazekas, F. Pollitt, T. Faller
c JKU Linz, University of Freiburg, TU Wien
c 
c Version 2.1.3 5296d3d2a9bf48c154ab2acb5e44625776d821bf
c g++ (Gentoo 12.3.1_p20230526 p2) 12.3.1 20230526 -Wall -Wextra -O3 -DNDEBUG
c Sat Aug 9 07:26:21 PDT 2025 Linux cedar2.int.cedar.computecanada.ca 5.14.0-362.24.2.el9_3.x86_64 x86_64
c 
c --- [ limit ] --------------------------------------------------------------
c 
c setting time limit to 1600 seconds real time (due to '-t 1600')
c 
c --- [ parsing input ] ------------------------------------------------------
c 
c reading DIMACS file from './data/cnfs//cmugigamax/cmugigamax.60.cnf'
c opening file to read './data/cnfs//cmugigamax/cmugigamax.60.cnf'
c found 'p cnf 39729 112757' header
c parsed 112757 clauses in 0.02 seconds process time
c 
c --- [ options ] ------------------------------------------------------------
c 
c   --compact=false                (different from default 'true')
c   --decompose=false              (different from default 'true')
c   --deduplicate=false            (different from default 'true')
c   --elim=false                   (different from default 'true')
c   --probe=false                  (different from default 'true')
c   --reduce=false                 (different from default 'true')
c   --subsume=false                (different from default 'true')
c   --ternary=false                (different from default 'true')
c   --transred=false               (different from default 'true')
c   --vivify=false                 (different from default 'true')
c 
c --- [ solving ] ------------------------------------------------------------
c 
c time measured in process time since initialization
c 
c  seconds  reductions  redundant  irredundant
c         MB    restarts       trail       variables
c          level   conflicts       glue         remaining
c 
c *  0.02 21  0 0   0    0    0  0% 0 111015 35744 90%
c {  0.02 21  0 0   0    0    0  0% 0 111015 35744 90%
c i  0.02 21 22 0   0   11    7 11% 1 111015 35743 90%
c i  0.02 22 23 0   0   16   11 11% 1 111015 35738 90%
c i  0.02 22 23 0   0   17   11 11% 1 111015 35737 90%
c i  0.02 22 24 0   0   23   15 12% 1 111015 35733 90%
c i  0.02 22 27 0   0   29   19 12% 1 111015 35732 90%
c i  0.02 22 28 0   0   33   22 12% 1 111015 35731 90%
c i  0.02 22 28 0   0   34   22 12% 1 111015 35729 90%
c i  0.02 22 28 0   0   49   29 12% 1 111015 35668 90%
c i  0.02 22 28 0   0   50   29 12% 1 111015 35654 90%
c i  0.02 22 25 0   1   58   35 12% 1 111015 35650 90%
c i  0.02 22 23 0   4   71   46 12% 1 111015 35645 90%
c i  0.02 22 23 0   7   78   50 12% 1 111015 35640 90%
c i  0.02 22 21 0  10   87   58 12% 1 111015 35613 90%
c i  0.02 22 20 0  11   92   62 12% 1 111015 35610 90%
c i  0.02 22 20 0  11  105   71 12% 1 111015 35608 90%
c i  0.02 22 21 0  11  114   78 12% 1 111015 35605 90%
c i  0.02 22 21 0  11  121   80 12% 1 111015 35602 90%
c i  0.02 22 21 0  11  122   80 12% 1 111015 35599 90%
c 
c  seconds  reductions  redundant  irredundant
c         MB    restarts       trail       variables
c          level   conflicts       glue         remaining
c 
c i  0.02 22 21 0  11  129   86 12% 1 111015 35595 90%
c i  0.02 22 21 0  11  139   94 12% 1 111015 35593 90%
c i  0.02 22 22 0  11  143   97 13% 1 111015 35591 90%
c i  0.02 22 23 0  11  150  101 13% 1 111015 35590 90%
c i  0.02 22 26 0  14  175  124 13% 2 111015 35587 90%
c i  0.02 22 23 0  19  196  143 13% 2 111015 35584 90%
c i  0.02 22 23 0  20  200  145 13% 2 111015 35185 89%
c i  0.02 22 23 0  21  201  145 13% 2 111015 35163 89%
c i  0.02 22 22 0  22  211  154 13% 2 111015 35162 89%
c i  0.02 22 21 0  23  221  162 13% 2 111015 35161 89%
c i  0.02 22 20 0  25  231  167 13% 2 111015 35137 88%
c i  0.02 22 20 0  25  232  167 13% 2 111015 35133 88%
c i  0.03 22 19 0  26  250  180 13% 2 111015 35132 88%
c i  0.03 22 19 0  27  277  202 13% 2 111015 35119 88%
c i  0.03 22 19 0  27  278  202 13% 2 111015 35116 88%
c i  0.03 22 19 0  27  286  207 13% 2 111015 35115 88%
c i  0.03 22 20 0  27  297  215 13% 2 111015 35113 88%
c i  0.03 22 21 0  27  304  219 13% 2 111015 35112 88%
c i  0.03 22 24 0  27  336  245 14% 2 111015 35110 88%
c i  0.03 22 25 0  27  343  249 14% 2 111015 35109 88%
c 
c  seconds  reductions  redundant  irredundant
c         MB    restarts       trail       variables
c          level   conflicts       glue         remaining
c 
c i  0.03 22 28 0  27  375  275 14% 2 111015 35107 88%
c i  0.03 22 29 0  27  382  279 14% 2 111015 35106 88%
c i  0.03 22 32 0  27  414  305 15% 2 111015 35104 88%
c i  0.03 22 33 0  27  421  309 15% 2 111015 35103 88%
... skipped 668 lines ...
c         MB     restarts       trail       variables
c           level   conflicts       glue         remaining
c 
c i  0.34 23 289 0 574 7684 6219 54% 3 111015 31920 80%
c i  0.34 23 288 0 574 7686 6220 54% 3 111015 31880 80%
c i  0.34 23 288 0 574 7689 6219 54% 3 111015 31813 80%
c i  0.34 23 287 0 574 7700 6227 54% 3 111015 31805 80%
c i  0.34 23 284 0 574 7747 6268 53% 3 111015 31791 80%
c i  0.34 23 277 0 574 7819 6331 53% 3 111015 31788 80%
c i  0.34 23 274 0 574 7856 6367 52% 3 111015 31766 80%
c i  0.34 23 273 0 574 7871 6380 52% 3 111015 31757 80%
c i  0.34 23 272 0 574 7881 6387 52% 3 111015 31735 80%
c i  0.34 23 271 0 574 7895 6399 52% 3 111015 31731 80%
c i  0.35 23 266 0 574 7957 6455 52% 3 111015 31728 80%
c i  0.35 23 258 0 574 8053 6547 51% 3 111015 31720 80%
c i  0.35 23 258 0 574 8054 6547 51% 3 111015 31712 80%
c i  0.35 23 249 0 574 8191 6676 50% 3 111015 31710 80%
c i  0.36 23 247 0 574 8216 6699 50% 3 111015 31708 80%
c i  0.36 23 247 0 574 8217 6699 50% 3 111015 31705 80%
c i  0.36 23 235 0 574 8390 6853 49% 3 111015 31704 80%
c i  0.36 23 235 0 574 8398 6860 49% 3 111015 31702 80%
c i  0.36 23 234 0 574 8411 6870 49% 3 111015 31697 80%
c i  0.36 23 232 0 574 8442 6898 49% 3 111015 31679 80%
c 
c  seconds   reductions  redundant  irredundant
c         MB     restarts       trail       variables
c           level   conflicts       glue         remaining
c 
c i  0.36 23 232 0 574 8443 6898 49% 3 111015 31673 80%
c i  0.36 23 230 0 574 8469 6921 49% 3 111015 31671 80%
c i  0.37 23 229 0 574 8500 6947 48% 3 111015 31667 80%
c i  0.37 23 228 0 574 8510 6952 48% 3 111015 31647 80%
c i  0.37 23 223 0 574 8603 7041 48% 3 111015 31643 80%
c i  0.37 23 222 0 574 8617 7052 48% 3 111015 31642 80%
c i  0.37 23 222 0 574 8618 7052 48% 3 111015 31639 80%
c i  0.37 23 222 0 574 8619 7052 48% 3 111015 31635 80%
c i  0.37 23 221 0 574 8632 7063 48% 3 111015 31634 80%
c i  0.37 23 221 0 574 8646 7075 48% 3 111015 31633 80%
c i  0.38 23 219 0 574 8710 7135 48% 3 111015 31632 80%
c i  0.38 23 220 0 574 8746 7163 48% 3 111015 31624 80%
c i  0.38 23 220 0 574 8769 7182 48% 3 111015 31622 80%
c i  0.38 23 220 0 574 8777 7189 48% 3 111015 31618 80%
c i  0.39 23 216 0 574 8871 7274 48% 3 111015 31579 79%
c i  0.39 23 216 0 574 8876 7277 48% 3 111015 31450 79%
c i  0.39 23 215 0 574 8883 7278 48% 3 111015 31375 79%
c i  0.39 23 215 0 574 8892 7280 48% 3 111015 31203 79%
c ]  0.39 23 215 0 574 8894 7280 48% 3 111015 31192 79%
c 0  0.39 23 215 0 574 8894 7280 48% 3 111015 31192 79%
c 
c --- [ result ] -------------------------------------------------------------
c 
s UNSATISFIABLE
c 
c --- [ run-time profiling ] -------------------------------------------------
c 
c process time taken by individual solving procedures
c (percentage relative to process time for solving)
c 
c         0.37   99.97% search
c         0.19   50.93% unstable
c         0.18   48.98% stable
c         0.02    5.32% parse
c         0.00    0.05% lucky
c         0.00    0.00% simplify
c   =================================
c         0.37   94.82% solve
c 
c last line shows process time for solving
c (percentage relative to total process time)
c 
c --- [ statistics ] ---------------------------------------------------------
c 
c chronological:              5275        59.31 %  of conflicts
c conflicts:                  8894     24231.96    per second
c decisions:                 64820    176603.93    per second
c fixed:                      8537        21.49 %  of all variables
c learned:                    8228        92.51 %  per conflict
c learned_lits:              45648       100.00 %  learned literals
c minimized:                     0         0.00 %  learned literals
c shrunken:                   6334        13.88 %  learned literals
c minishrunken:               2485         5.44 %  learned literals
c otfs:                        324         3.64 %  of conflict
c propagations:            4728788        12.88 M  per second
c rephased:                      3      2964.67    interval
c restarts:                    574        15.49    interval
c stabilizing:                   2        43.77 %  of conflicts
c subsumed:                    281         0.24 %  of all clauses
c strengthened:                323         0.27 %  of all clauses
c 
c seconds are measured in process time for solving
c 
c --- [ resources ] ----------------------------------------------------------
c 
c total process time since initialization:         0.39    seconds
c total real time since initialization:            0.40    seconds
c maximum resident set size of process:           32.34    MB
c 
c --- [ shutting down ] ------------------------------------------------------
c 
c exit 20
